nNurses = 112;
nHours = 28;
minHours = 10;
maxHours = 20;
maxConsec = 11;
maxPresence = 27;
demand = [25, 27, 28, 29, 29, 25, 20, 18, 21, 20, 16, 21, 19, 22, 24, 24, 26, 23, 23, 20, 18, 20, 24, 25, 28, 33, 28, 25];
